results_rootrelaxation/bin018_060_017.srr.sol
solution status: optimal solution found
objective value:                                    0
_var2686_                          0.0347818503644623 	(obj:0)
_var2687_                          0.0229578531408491 	(obj:0)
_var2693_                          0.0384306915243805 	(obj:0)
_var2694_                           0.021696760702729 	(obj:0)
_var2718_                            0.13546892442652 	(obj:0)
_var2740_                          0.0268334674908748 	(obj:0)
_var2752_                          0.0451144545696447 	(obj:0)
_var2772_                           0.162812850310133 	(obj:0)
_var2776_                           0.362173623550166 	(obj:0)
_var2780_                           0.100210866222513 	(obj:0)
_var2793_                          0.0211678360146249 	(obj:0)
_var2797_                           0.107340802644996 	(obj:0)
_var2811_                           0.272840333550855 	(obj:0)
_var2815_                          0.0183378245207219 	(obj:0)
_var2816_                          0.0102893805497661 	(obj:0)
_var2818_                           0.116637157182075 	(obj:0)
_var2819_                          0.0883700270988845 	(obj:0)
_var2824_                           0.157678090932089 	(obj:0)
_var2827_                           0.115325303271814 	(obj:0)
_var2833_                           0.254683845145554 	(obj:0)
_var2840_                          0.0479485366873809 	(obj:0)
_var2841_                           0.232879419836733 	(obj:0)
_var2848_                           0.210811243849106 	(obj:0)
_var2857_                          0.0860639035271017 	(obj:0)
_var2858_                           0.184644793899044 	(obj:0)
_var2862_                           0.391968651306066 	(obj:0)
_var2868_                          0.0295701776849499 	(obj:0)
_var2869_                           0.108480592979408 	(obj:0)
_var2870_                           0.204966987068962 	(obj:0)
_var2871_                           0.293119428177049 	(obj:0)
_var2874_                          0.0549158030672103 	(obj:0)
_var2879_                           0.105802537225561 	(obj:0)
_var2880_                           0.234939729576988 	(obj:0)
_var2881_                            0.10489553343728 	(obj:0)
_var2883_                          0.0455925712087386 	(obj:0)
_var2884_                          0.0147325725521257 	(obj:0)
_var2887_                          0.0230601300745484 	(obj:0)
_var2889_                          0.0598393809983223 	(obj:0)
_var2901_                          0.0148006514736792 	(obj:0)
_var2904_                           0.288675735279914 	(obj:0)
_var2905_                          0.0603673346681869 	(obj:0)
_var2906_                          0.0715042853632616 	(obj:0)
_var2907_                           0.170665603410738 	(obj:0)
_var2910_                           0.484948271574968 	(obj:0)
_var2919_                           0.214248098381831 	(obj:0)
_var2923_                           0.368507440743903 	(obj:0)
_var2925_                           0.189088398835227 	(obj:0)
_var2927_                           0.233665703439343 	(obj:0)
_var2933_                         0.00985277502506531 	(obj:0)
_var2934_                           0.315087826628988 	(obj:0)
_var2935_                         0.00633357052600031 	(obj:0)
_var2937_                            0.10872699751988 	(obj:0)
_var2941_                          0.0969792944730882 	(obj:0)
_var2946_                           0.176860156177295 	(obj:0)
_var2947_                          0.0403202891034036 	(obj:0)
_var2948_                           0.176675335416714 	(obj:0)
_var2950_                          0.0392955215742014 	(obj:0)
_var2952_                           0.250947851471405 	(obj:0)
_var2955_                          0.0875087718029341 	(obj:0)
_var2956_                          0.0155136868288752 	(obj:0)
_var2957_                         0.00525325922644199 	(obj:0)
_var2958_                          0.0169261829822863 	(obj:0)
_var2959_                          0.0794578043089954 	(obj:0)
_var2960_                          0.0785989220151055 	(obj:0)
_var2963_                          0.0547435631188734 	(obj:0)
_var2966_                           0.118120277068997 	(obj:0)
_var2968_                           0.166766871531392 	(obj:0)
_var2970_                           0.340348623618389 	(obj:0)
_var2974_                           0.103490036791637 	(obj:0)
_var2976_                          0.0392993348118967 	(obj:0)
_var2980_                          0.0616386719110816 	(obj:0)
_var2984_                           0.373071424680188 	(obj:0)
_var2991_                           0.208628193282852 	(obj:0)
_var2992_                           0.162759119740193 	(obj:0)
_var2997_                           0.114875803232307 	(obj:0)
_var2998_                           0.186083159990954 	(obj:0)
_var3002_                           0.120614298607306 	(obj:0)
_var3005_                           0.302537668761606 	(obj:0)
_var3007_                           0.321977806769324 	(obj:0)
_var3010_                           0.143719347866411 	(obj:0)
_var3011_                           0.075829191364738 	(obj:0)
_var3012_                          0.0834498663521315 	(obj:0)
_var3013_                           0.453864177698265 	(obj:0)
_var3014_                          0.0932150427238379 	(obj:0)
_var3017_                           0.358291616844463 	(obj:0)
_var3020_                          0.0672652014036639 	(obj:0)
_var3024_                          0.0021542314594847 	(obj:0)
_var3026_                          0.0721541777473658 	(obj:0)
_var3028_                           0.048569002450294 	(obj:0)
_var3029_                          0.0273002151174851 	(obj:0)
_var3033_                           0.198193546105435 	(obj:0)
_var3034_                          0.0412138492436105 	(obj:0)
_var3035_                          0.0932527668888665 	(obj:0)
_var3037_                           0.204247892922151 	(obj:0)
_var3038_                          0.0842283515336472 	(obj:0)
_var3040_                          0.0289473908578345 	(obj:0)
_var3041_                          0.0146184333000703 	(obj:0)
_var3043_                           0.278114022308045 	(obj:0)
_var3044_                          0.0609949713246875 	(obj:0)
_var3045_                          0.0603801057656914 	(obj:0)
_var3046_                           0.114457560963812 	(obj:0)
_var3047_                           0.254057762666757 	(obj:0)
_var3050_                          0.0784129786271301 	(obj:0)
_var3053_                          0.0905657327208164 	(obj:0)
_var3054_                          0.0837348452078865 	(obj:0)
_var3055_                          0.0252534107353626 	(obj:0)
_var3061_                          0.0538995672073658 	(obj:0)
_var3062_                           0.133443464059451 	(obj:0)
_var3068_                           0.143668665304866 	(obj:0)
_var3071_                         0.00512334833293964 	(obj:0)
_var3072_                           0.144864376920083 	(obj:0)
_var3073_                           0.157456434075559 	(obj:0)
_var3074_                           0.121422571856051 	(obj:0)
_var3075_                          0.0412675851905382 	(obj:0)
_var3077_                          0.0717602714349306 	(obj:0)
_var3078_                          0.0588416289127427 	(obj:0)
_var3084_                          0.0415101912599139 	(obj:0)
_var3085_                           0.055229308788356 	(obj:0)
_var3087_                           0.130821473879182 	(obj:0)
_var3088_                          0.0647875609715096 	(obj:0)
_var3089_                          0.0574272122912569 	(obj:0)
_var3093_                          0.0165844866625122 	(obj:0)
_var3094_                           0.023310918825331 	(obj:0)
_var3096_                          0.0219956790024158 	(obj:0)
_var3101_                           0.147634454660054 	(obj:0)
_var3102_                          0.0529601002125148 	(obj:0)
_var3103_                          0.0450702149192604 	(obj:0)
_var3104_                          0.0676759960792455 	(obj:0)
_var3105_                          0.0230532794433199 	(obj:0)
_var3106_                          0.0357311696736435 	(obj:0)
_var3107_                           0.110873780696108 	(obj:0)
_var3108_                          0.0628107416040728 	(obj:0)
_var3109_                          0.0703981146103074 	(obj:0)
_var3113_                         0.00598133067443821 	(obj:0)
_var3118_                          0.0842030728293844 	(obj:0)
_var3119_                           0.103923888397184 	(obj:0)
_var3120_                          0.0210943841958034 	(obj:0)
_var3121_                          0.0308180248846275 	(obj:0)
_var3123_                          0.0519157798704671 	(obj:0)
_var3124_                          0.0952873687853651 	(obj:0)
_var3125_                          0.0754413399017457 	(obj:0)
_var3127_                           0.151239100422726 	(obj:0)
_var3128_                          0.0677218178800609 	(obj:0)
_var3131_                          0.0293449150613847 	(obj:0)
_var3132_                           0.292078059634978 	(obj:0)
_var3134_                          0.0029850288231614 	(obj:0)
_var3142_                          0.0187963044550527 	(obj:0)
_var3144_                          0.0149538165083427 	(obj:0)
_var3145_                         0.00482674083349907 	(obj:0)
_var3155_                          0.0137193799389863 	(obj:0)
_var3157_                          0.0164127992903688 	(obj:0)
